436 437 438 454 455 456 457 458 1 2 3 4 0 5 6 572 573 571 460 459 461 462 463 464 465 466 467 468 469 470 471 472 494 495 496 497 498 502 503 504 505 308 307 303 304 306 305 318 317 319 320 321 297 298 299 262 259 258 300 301 302 508 507 506 509 510 511 512 527 513 514 515 516 517 519 518 520 521 522 523 526 528 529 490 491 492 525 524 493 485 484 483 481 482 475 476 480 479 477 478 545 544 543 547 546 548 549 560 561 562 563 564 565 566 567 473 474 570 569 568 20 19 18 17 8 7 9 10 11 16 15 14 13 12 23 22 21 24 25 26 27 28 29 31 30 32 36 37 38 35 33 34 558 559 550 557 556 41 40 39 42 43 44 47 48 49 46 45 555 91 92 93 94 97 554 553 552 551 101 102 100 99 98 96 95 105 104 103 541 542 107 109 108 173 174 175 172 170 171 169 180 181 179 182 183 185 184 194 195 196 197 198 199 200 201 166 167 164 163 168 162 160 161 113 112 111 110 114 115 116 106 117 121 118 119 120 122 123 71 72 73 74 75 77 78 88 89 90 87 86 85 82 83 84 51 50 52 54 53 55 56 57 58 59 81 80 79 61 60 63 62 76 64 65 66 67 68 70 69 124 125 126 127 128 129 130 131 132 133 134 135 136 137 138 139 140 141 151 150 149 152 148 147 142 143 144 146 145 158 157 159 156 155 153 154 165 203 204 202 208 207 206 205 209 210 211 212 213 214 215 216 217 223 224 222 221 220 218 219 193 192 191 190 226 225 189 227 186 188 187 178 177 176 540 538 539 537 536 535 487 486 534 488 489 533 230 229 228 231 532 531 530 233 232 234 235 236 237 240 239 238 246 247 245 244 243 242 241 248 249 250 251 252 254 253 255 256 257 260 261 263 264 265 266 267 271 272 269 268 270 296 295 294 293 291 292 273 274 275 290 289 288 276 277 278 279 282 281 280 287 286 285 284 283 334 335 336 337 338 339 333 332 331 330 340 341 343 344 345 346 364 363 361 362 347 348 350 349 358 359 360 401 402 403 400 404 405 406 407 399 397 398 370 369 368 367 365 342 366 329 328 327 326 325 324 323 322 373 372 371 396 395 394 393 391 392 380 379 378 377 376 375 374 315 314 316 313 312 309 310 311 451 501 500 499 452 453 450 449 448 447 446 442 441 440 439 443 444 445 381 390 389 388 387 386 385 408 409 384 383 410 418 411 412 356 357 355 354 353 352 351 415 416 414 413 417 419 420 421 422 423 424 425 382 426 427 428 429 431 430 432 433 434 435